(set-option :produce-models true)
(set-logic QF_LRA)
(set-info :notes | Strip-packing problem.|)
(declare-fun x0 () Real)
(declare-fun y0 () Real)
(declare-fun x1 () Real)
(declare-fun y1 () Real)
(declare-fun x2 () Real)
(declare-fun y2 () Real)
(declare-fun x3 () Real)
(declare-fun y3 () Real)
(declare-fun x4 () Real)
(declare-fun y4 () Real)
(declare-fun x5 () Real)
(declare-fun y5 () Real)
(declare-fun x6 () Real)
(declare-fun y6 () Real)
(declare-fun x7 () Real)
(declare-fun y7 () Real)
(declare-fun x8 () Real)
(declare-fun y8 () Real)
(declare-fun x9 () Real)
(declare-fun y9 () Real)
(declare-fun x10 () Real)
(declare-fun y10 () Real)
(declare-fun x11 () Real)
(declare-fun y11 () Real)
(declare-fun x12 () Real)
(declare-fun y12 () Real)
(declare-fun x13 () Real)
(declare-fun y13 () Real)
(declare-fun x14 () Real)
(declare-fun y14 () Real)
(declare-fun z () Real)
(declare-fun c () Real)
(assert (and (= c z) (and (>= x0 0) 
(and (>= y0 0) 
(and (>= x1 0) 
(and (>= y1 0) 
(and (>= x2 0) 
(and (>= y2 0) 
(and (>= x3 0) 
(and (>= y3 0) 
(and (>= x4 0) 
(and (>= y4 0) 
(and (>= x5 0) 
(and (>= y5 0) 
(and (>= x6 0) 
(and (>= y6 0) 
(and (>= x7 0) 
(and (>= y7 0) 
(and (>= x8 0) 
(and (>= y8 0) 
(and (>= x9 0) 
(and (>= y9 0) 
(and (>= x10 0) 
(and (>= y10 0) 
(and (>= x11 0) 
(and (>= y11 0) 
(and (>= x12 0) 
(and (>= y12 0) 
(and (>= x13 0) 
(and (>= y13 0) 
(and (>= x14 0) 
(and (>= y14 0) 
(and (>= z 0) 
(and (>= c 0) 
(and (<= (+ x0 0.6253124653) z) 
(and (<= 0.9323025321 y0) 
(and (<= y0 1.0) 
(and (<= x0 (- 5.0868565231 0.6253124653)) 
(and (>= x0 0) 
(and (<= (+ x1 0.9696544563) z) 
(and (<= 0.8443681793 y1) 
(and (<= y1 1.0) 
(and (<= x1 (- 5.0868565231 0.9696544563)) 
(and (>= x1 0) 
(and (<= (+ x2 0.0980727729) z) 
(and (<= 0.8134390705 y2) 
(and (<= y2 1.0) 
(and (<= x2 (- 5.0868565231 0.0980727729)) 
(and (>= x2 0) 
(and (<= (+ x3 0.9366305412) z) 
(and (<= 0.7854890337 y3) 
(and (<= y3 1.0) 
(and (<= x3 (- 5.0868565231 0.9366305412)) 
(and (>= x3 0) 
(and (<= (+ x4 0.5794344417) z) 
(and (<= 0.7690638148 y4) 
(and (<= y4 1.0) 
(and (<= x4 (- 5.0868565231 0.5794344417)) 
(and (>= x4 0) 
(and (<= (+ x5 0.4430145239) z) 
(and (<= 0.6153485426 y5) 
(and (<= y5 1.0) 
(and (<= x5 (- 5.0868565231 0.4430145239)) 
(and (>= x5 0) 
(and (<= (+ x6 0.5263281118) z) 
(and (<= 0.4767205246 y6) 
(and (<= y6 1.0) 
(and (<= x6 (- 5.0868565231 0.5263281118)) 
(and (>= x6 0) 
(and (<= (+ x7 0.3850874663) z) 
(and (<= 0.441336496 y7) 
(and (<= y7 1.0) 
(and (<= x7 (- 5.0868565231 0.3850874663)) 
(and (>= x7 0) 
(and (<= (+ x8 0.034080812) z) 
(and (<= 0.440244086 y8) 
(and (<= y8 1.0) 
(and (<= x8 (- 5.0868565231 0.034080812)) 
(and (>= x8 0) 
(and (<= (+ x9 0.874328398) z) 
(and (<= 0.3292844595 y9) 
(and (<= y9 1.0) 
(and (<= x9 (- 5.0868565231 0.874328398)) 
(and (>= x9 0) 
(and (<= (+ x10 0.5558706508) z) 
(and (<= 0.286438507 y10) 
(and (<= y10 1.0) 
(and (<= x10 (- 5.0868565231 0.5558706508)) 
(and (>= x10 0) 
(and (<= (+ x11 0.7927831782) z) 
(and (<= 0.2409534635 y11) 
(and (<= y11 1.0) 
(and (<= x11 (- 5.0868565231 0.7927831782)) 
(and (>= x11 0) 
(and (<= (+ x12 0.7890897911) z) 
(and (<= 0.0703414039 y12) 
(and (<= y12 1.0) 
(and (<= x12 (- 5.0868565231 0.7890897911)) 
(and (>= x12 0) 
(and (<= (+ x13 0.2323399369) z) 
(and (<= 0.0113939723 y13) 
(and (<= y13 1.0) 
(and (<= x13 (- 5.0868565231 0.2323399369)) 
(and (>= x13 0) 
(and (<= (+ x14 0.3567800875) z) 
(and (<= 0.0074030491 y14) 
(and (<= y14 1.0) 
(and (<= x14 (- 5.0868565231 0.3567800875)) 
(and (>= x14 0) 
(and (<= c 5.0868565231) 
(and (or (<= (+ x0 0.6253124653) x1) (or (<= (+ x1 0.9696544563) x0) (or (>= (- y0 0.9323025321) y1) (or (>= (- y1 0.8443681793) y0))))) 
(and (or (<= (+ x0 0.6253124653) x2) (or (<= (+ x2 0.0980727729) x0) (or (>= (- y0 0.9323025321) y2) (or (>= (- y2 0.8134390705) y0))))) 
(and (or (<= (+ x0 0.6253124653) x3) (or (<= (+ x3 0.9366305412) x0) (or (>= (- y0 0.9323025321) y3) (or (>= (- y3 0.7854890337) y0))))) 
(and (or (<= (+ x0 0.6253124653) x4) (or (<= (+ x4 0.5794344417) x0) (or (>= (- y0 0.9323025321) y4) (or (>= (- y4 0.7690638148) y0))))) 
(and (or (<= (+ x0 0.6253124653) x5) (or (<= (+ x5 0.4430145239) x0) (or (>= (- y0 0.9323025321) y5) (or (>= (- y5 0.6153485426) y0))))) 
(and (or (<= (+ x0 0.6253124653) x6) (or (<= (+ x6 0.5263281118) x0) (or (>= (- y0 0.9323025321) y6) (or (>= (- y6 0.4767205246) y0))))) 
(and (or (<= (+ x0 0.6253124653) x7) (or (<= (+ x7 0.3850874663) x0) (or (>= (- y0 0.9323025321) y7) (or (>= (- y7 0.441336496) y0))))) 
(and (or (<= (+ x0 0.6253124653) x8) (or (<= (+ x8 0.034080812) x0) (or (>= (- y0 0.9323025321) y8) (or (>= (- y8 0.440244086) y0))))) 
(and (or (<= (+ x0 0.6253124653) x9) (or (<= (+ x9 0.874328398) x0) (or (>= (- y0 0.9323025321) y9) (or (>= (- y9 0.3292844595) y0))))) 
(and (or (<= (+ x0 0.6253124653) x10) (or (<= (+ x10 0.5558706508) x0) (or (>= (- y0 0.9323025321) y10) (or (>= (- y10 0.286438507) y0))))) 
(and (or (<= (+ x0 0.6253124653) x11) (or (<= (+ x11 0.7927831782) x0) (or (>= (- y0 0.9323025321) y11) (or (>= (- y11 0.2409534635) y0))))) 
(and (or (<= (+ x0 0.6253124653) x12) (or (<= (+ x12 0.7890897911) x0) (or (>= (- y0 0.9323025321) y12) (or (>= (- y12 0.0703414039) y0))))) 
(and (or (<= (+ x0 0.6253124653) x13) (or (<= (+ x13 0.2323399369) x0) (or (>= (- y0 0.9323025321) y13) (or (>= (- y13 0.0113939723) y0))))) 
(and (or (<= (+ x0 0.6253124653) x14) (or (<= (+ x14 0.3567800875) x0) (or (>= (- y0 0.9323025321) y14) (or (>= (- y14 0.0074030491) y0))))) 
(and (or (<= (+ x1 0.9696544563) x2) (or (<= (+ x2 0.0980727729) x1) (or (>= (- y1 0.8443681793) y2) (or (>= (- y2 0.8134390705) y1))))) 
(and (or (<= (+ x1 0.9696544563) x3) (or (<= (+ x3 0.9366305412) x1) (or (>= (- y1 0.8443681793) y3) (or (>= (- y3 0.7854890337) y1))))) 
(and (or (<= (+ x1 0.9696544563) x4) (or (<= (+ x4 0.5794344417) x1) (or (>= (- y1 0.8443681793) y4) (or (>= (- y4 0.7690638148) y1))))) 
(and (or (<= (+ x1 0.9696544563) x5) (or (<= (+ x5 0.4430145239) x1) (or (>= (- y1 0.8443681793) y5) (or (>= (- y5 0.6153485426) y1))))) 
(and (or (<= (+ x1 0.9696544563) x6) (or (<= (+ x6 0.5263281118) x1) (or (>= (- y1 0.8443681793) y6) (or (>= (- y6 0.4767205246) y1))))) 
(and (or (<= (+ x1 0.9696544563) x7) (or (<= (+ x7 0.3850874663) x1) (or (>= (- y1 0.8443681793) y7) (or (>= (- y7 0.441336496) y1))))) 
(and (or (<= (+ x1 0.9696544563) x8) (or (<= (+ x8 0.034080812) x1) (or (>= (- y1 0.8443681793) y8) (or (>= (- y8 0.440244086) y1))))) 
(and (or (<= (+ x1 0.9696544563) x9) (or (<= (+ x9 0.874328398) x1) (or (>= (- y1 0.8443681793) y9) (or (>= (- y9 0.3292844595) y1))))) 
(and (or (<= (+ x1 0.9696544563) x10) (or (<= (+ x10 0.5558706508) x1) (or (>= (- y1 0.8443681793) y10) (or (>= (- y10 0.286438507) y1))))) 
(and (or (<= (+ x1 0.9696544563) x11) (or (<= (+ x11 0.7927831782) x1) (or (>= (- y1 0.8443681793) y11) (or (>= (- y11 0.2409534635) y1))))) 
(and (or (<= (+ x1 0.9696544563) x12) (or (<= (+ x12 0.7890897911) x1) (or (>= (- y1 0.8443681793) y12) (or (>= (- y12 0.0703414039) y1))))) 
(and (or (<= (+ x1 0.9696544563) x13) (or (<= (+ x13 0.2323399369) x1) (or (>= (- y1 0.8443681793) y13) (or (>= (- y13 0.0113939723) y1))))) 
(and (or (<= (+ x1 0.9696544563) x14) (or (<= (+ x14 0.3567800875) x1) (or (>= (- y1 0.8443681793) y14) (or (>= (- y14 0.0074030491) y1))))) 
(and (or (<= (+ x2 0.0980727729) x3) (or (<= (+ x3 0.9366305412) x2) (or (>= (- y2 0.8134390705) y3) (or (>= (- y3 0.7854890337) y2))))) 
(and (or (<= (+ x2 0.0980727729) x4) (or (<= (+ x4 0.5794344417) x2) (or (>= (- y2 0.8134390705) y4) (or (>= (- y4 0.7690638148) y2))))) 
(and (or (<= (+ x2 0.0980727729) x5) (or (<= (+ x5 0.4430145239) x2) (or (>= (- y2 0.8134390705) y5) (or (>= (- y5 0.6153485426) y2))))) 
(and (or (<= (+ x2 0.0980727729) x6) (or (<= (+ x6 0.5263281118) x2) (or (>= (- y2 0.8134390705) y6) (or (>= (- y6 0.4767205246) y2))))) 
(and (or (<= (+ x2 0.0980727729) x7) (or (<= (+ x7 0.3850874663) x2) (or (>= (- y2 0.8134390705) y7) (or (>= (- y7 0.441336496) y2))))) 
(and (or (<= (+ x2 0.0980727729) x8) (or (<= (+ x8 0.034080812) x2) (or (>= (- y2 0.8134390705) y8) (or (>= (- y8 0.440244086) y2))))) 
(and (or (<= (+ x2 0.0980727729) x9) (or (<= (+ x9 0.874328398) x2) (or (>= (- y2 0.8134390705) y9) (or (>= (- y9 0.3292844595) y2))))) 
(and (or (<= (+ x2 0.0980727729) x10) (or (<= (+ x10 0.5558706508) x2) (or (>= (- y2 0.8134390705) y10) (or (>= (- y10 0.286438507) y2))))) 
(and (or (<= (+ x2 0.0980727729) x11) (or (<= (+ x11 0.7927831782) x2) (or (>= (- y2 0.8134390705) y11) (or (>= (- y11 0.2409534635) y2))))) 
(and (or (<= (+ x2 0.0980727729) x12) (or (<= (+ x12 0.7890897911) x2) (or (>= (- y2 0.8134390705) y12) (or (>= (- y12 0.0703414039) y2))))) 
(and (or (<= (+ x2 0.0980727729) x13) (or (<= (+ x13 0.2323399369) x2) (or (>= (- y2 0.8134390705) y13) (or (>= (- y13 0.0113939723) y2))))) 
(and (or (<= (+ x2 0.0980727729) x14) (or (<= (+ x14 0.3567800875) x2) (or (>= (- y2 0.8134390705) y14) (or (>= (- y14 0.0074030491) y2))))) 
(and (or (<= (+ x3 0.9366305412) x4) (or (<= (+ x4 0.5794344417) x3) (or (>= (- y3 0.7854890337) y4) (or (>= (- y4 0.7690638148) y3))))) 
(and (or (<= (+ x3 0.9366305412) x5) (or (<= (+ x5 0.4430145239) x3) (or (>= (- y3 0.7854890337) y5) (or (>= (- y5 0.6153485426) y3))))) 
(and (or (<= (+ x3 0.9366305412) x6) (or (<= (+ x6 0.5263281118) x3) (or (>= (- y3 0.7854890337) y6) (or (>= (- y6 0.4767205246) y3))))) 
(and (or (<= (+ x3 0.9366305412) x7) (or (<= (+ x7 0.3850874663) x3) (or (>= (- y3 0.7854890337) y7) (or (>= (- y7 0.441336496) y3))))) 
(and (or (<= (+ x3 0.9366305412) x8) (or (<= (+ x8 0.034080812) x3) (or (>= (- y3 0.7854890337) y8) (or (>= (- y8 0.440244086) y3))))) 
(and (or (<= (+ x3 0.9366305412) x9) (or (<= (+ x9 0.874328398) x3) (or (>= (- y3 0.7854890337) y9) (or (>= (- y9 0.3292844595) y3))))) 
(and (or (<= (+ x3 0.9366305412) x10) (or (<= (+ x10 0.5558706508) x3) (or (>= (- y3 0.7854890337) y10) (or (>= (- y10 0.286438507) y3))))) 
(and (or (<= (+ x3 0.9366305412) x11) (or (<= (+ x11 0.7927831782) x3) (or (>= (- y3 0.7854890337) y11) (or (>= (- y11 0.2409534635) y3))))) 
(and (or (<= (+ x3 0.9366305412) x12) (or (<= (+ x12 0.7890897911) x3) (or (>= (- y3 0.7854890337) y12) (or (>= (- y12 0.0703414039) y3))))) 
(and (or (<= (+ x3 0.9366305412) x13) (or (<= (+ x13 0.2323399369) x3) (or (>= (- y3 0.7854890337) y13) (or (>= (- y13 0.0113939723) y3))))) 
(and (or (<= (+ x3 0.9366305412) x14) (or (<= (+ x14 0.3567800875) x3) (or (>= (- y3 0.7854890337) y14) (or (>= (- y14 0.0074030491) y3))))) 
(and (or (<= (+ x4 0.5794344417) x5) (or (<= (+ x5 0.4430145239) x4) (or (>= (- y4 0.7690638148) y5) (or (>= (- y5 0.6153485426) y4))))) 
(and (or (<= (+ x4 0.5794344417) x6) (or (<= (+ x6 0.5263281118) x4) (or (>= (- y4 0.7690638148) y6) (or (>= (- y6 0.4767205246) y4))))) 
(and (or (<= (+ x4 0.5794344417) x7) (or (<= (+ x7 0.3850874663) x4) (or (>= (- y4 0.7690638148) y7) (or (>= (- y7 0.441336496) y4))))) 
(and (or (<= (+ x4 0.5794344417) x8) (or (<= (+ x8 0.034080812) x4) (or (>= (- y4 0.7690638148) y8) (or (>= (- y8 0.440244086) y4))))) 
(and (or (<= (+ x4 0.5794344417) x9) (or (<= (+ x9 0.874328398) x4) (or (>= (- y4 0.7690638148) y9) (or (>= (- y9 0.3292844595) y4))))) 
(and (or (<= (+ x4 0.5794344417) x10) (or (<= (+ x10 0.5558706508) x4) (or (>= (- y4 0.7690638148) y10) (or (>= (- y10 0.286438507) y4))))) 
(and (or (<= (+ x4 0.5794344417) x11) (or (<= (+ x11 0.7927831782) x4) (or (>= (- y4 0.7690638148) y11) (or (>= (- y11 0.2409534635) y4))))) 
(and (or (<= (+ x4 0.5794344417) x12) (or (<= (+ x12 0.7890897911) x4) (or (>= (- y4 0.7690638148) y12) (or (>= (- y12 0.0703414039) y4))))) 
(and (or (<= (+ x4 0.5794344417) x13) (or (<= (+ x13 0.2323399369) x4) (or (>= (- y4 0.7690638148) y13) (or (>= (- y13 0.0113939723) y4))))) 
(and (or (<= (+ x4 0.5794344417) x14) (or (<= (+ x14 0.3567800875) x4) (or (>= (- y4 0.7690638148) y14) (or (>= (- y14 0.0074030491) y4))))) 
(and (or (<= (+ x5 0.4430145239) x6) (or (<= (+ x6 0.5263281118) x5) (or (>= (- y5 0.6153485426) y6) (or (>= (- y6 0.4767205246) y5))))) 
(and (or (<= (+ x5 0.4430145239) x7) (or (<= (+ x7 0.3850874663) x5) (or (>= (- y5 0.6153485426) y7) (or (>= (- y7 0.441336496) y5))))) 
(and (or (<= (+ x5 0.4430145239) x8) (or (<= (+ x8 0.034080812) x5) (or (>= (- y5 0.6153485426) y8) (or (>= (- y8 0.440244086) y5))))) 
(and (or (<= (+ x5 0.4430145239) x9) (or (<= (+ x9 0.874328398) x5) (or (>= (- y5 0.6153485426) y9) (or (>= (- y9 0.3292844595) y5))))) 
(and (or (<= (+ x5 0.4430145239) x10) (or (<= (+ x10 0.5558706508) x5) (or (>= (- y5 0.6153485426) y10) (or (>= (- y10 0.286438507) y5))))) 
(and (or (<= (+ x5 0.4430145239) x11) (or (<= (+ x11 0.7927831782) x5) (or (>= (- y5 0.6153485426) y11) (or (>= (- y11 0.2409534635) y5))))) 
(and (or (<= (+ x5 0.4430145239) x12) (or (<= (+ x12 0.7890897911) x5) (or (>= (- y5 0.6153485426) y12) (or (>= (- y12 0.0703414039) y5))))) 
(and (or (<= (+ x5 0.4430145239) x13) (or (<= (+ x13 0.2323399369) x5) (or (>= (- y5 0.6153485426) y13) (or (>= (- y13 0.0113939723) y5))))) 
(and (or (<= (+ x5 0.4430145239) x14) (or (<= (+ x14 0.3567800875) x5) (or (>= (- y5 0.6153485426) y14) (or (>= (- y14 0.0074030491) y5))))) 
(and (or (<= (+ x6 0.5263281118) x7) (or (<= (+ x7 0.3850874663) x6) (or (>= (- y6 0.4767205246) y7) (or (>= (- y7 0.441336496) y6))))) 
(and (or (<= (+ x6 0.5263281118) x8) (or (<= (+ x8 0.034080812) x6) (or (>= (- y6 0.4767205246) y8) (or (>= (- y8 0.440244086) y6))))) 
(and (or (<= (+ x6 0.5263281118) x9) (or (<= (+ x9 0.874328398) x6) (or (>= (- y6 0.4767205246) y9) (or (>= (- y9 0.3292844595) y6))))) 
(and (or (<= (+ x6 0.5263281118) x10) (or (<= (+ x10 0.5558706508) x6) (or (>= (- y6 0.4767205246) y10) (or (>= (- y10 0.286438507) y6))))) 
(and (or (<= (+ x6 0.5263281118) x11) (or (<= (+ x11 0.7927831782) x6) (or (>= (- y6 0.4767205246) y11) (or (>= (- y11 0.2409534635) y6))))) 
(and (or (<= (+ x6 0.5263281118) x12) (or (<= (+ x12 0.7890897911) x6) (or (>= (- y6 0.4767205246) y12) (or (>= (- y12 0.0703414039) y6))))) 
(and (or (<= (+ x6 0.5263281118) x13) (or (<= (+ x13 0.2323399369) x6) (or (>= (- y6 0.4767205246) y13) (or (>= (- y13 0.0113939723) y6))))) 
(and (or (<= (+ x6 0.5263281118) x14) (or (<= (+ x14 0.3567800875) x6) (or (>= (- y6 0.4767205246) y14) (or (>= (- y14 0.0074030491) y6))))) 
(and (or (<= (+ x7 0.3850874663) x8) (or (<= (+ x8 0.034080812) x7) (or (>= (- y7 0.441336496) y8) (or (>= (- y8 0.440244086) y7))))) 
(and (or (<= (+ x7 0.3850874663) x9) (or (<= (+ x9 0.874328398) x7) (or (>= (- y7 0.441336496) y9) (or (>= (- y9 0.3292844595) y7))))) 
(and (or (<= (+ x7 0.3850874663) x10) (or (<= (+ x10 0.5558706508) x7) (or (>= (- y7 0.441336496) y10) (or (>= (- y10 0.286438507) y7))))) 
(and (or (<= (+ x7 0.3850874663) x11) (or (<= (+ x11 0.7927831782) x7) (or (>= (- y7 0.441336496) y11) (or (>= (- y11 0.2409534635) y7))))) 
(and (or (<= (+ x7 0.3850874663) x12) (or (<= (+ x12 0.7890897911) x7) (or (>= (- y7 0.441336496) y12) (or (>= (- y12 0.0703414039) y7))))) 
(and (or (<= (+ x7 0.3850874663) x13) (or (<= (+ x13 0.2323399369) x7) (or (>= (- y7 0.441336496) y13) (or (>= (- y13 0.0113939723) y7))))) 
(and (or (<= (+ x7 0.3850874663) x14) (or (<= (+ x14 0.3567800875) x7) (or (>= (- y7 0.441336496) y14) (or (>= (- y14 0.0074030491) y7))))) 
(and (or (<= (+ x8 0.034080812) x9) (or (<= (+ x9 0.874328398) x8) (or (>= (- y8 0.440244086) y9) (or (>= (- y9 0.3292844595) y8))))) 
(and (or (<= (+ x8 0.034080812) x10) (or (<= (+ x10 0.5558706508) x8) (or (>= (- y8 0.440244086) y10) (or (>= (- y10 0.286438507) y8))))) 
(and (or (<= (+ x8 0.034080812) x11) (or (<= (+ x11 0.7927831782) x8) (or (>= (- y8 0.440244086) y11) (or (>= (- y11 0.2409534635) y8))))) 
(and (or (<= (+ x8 0.034080812) x12) (or (<= (+ x12 0.7890897911) x8) (or (>= (- y8 0.440244086) y12) (or (>= (- y12 0.0703414039) y8))))) 
(and (or (<= (+ x8 0.034080812) x13) (or (<= (+ x13 0.2323399369) x8) (or (>= (- y8 0.440244086) y13) (or (>= (- y13 0.0113939723) y8))))) 
(and (or (<= (+ x8 0.034080812) x14) (or (<= (+ x14 0.3567800875) x8) (or (>= (- y8 0.440244086) y14) (or (>= (- y14 0.0074030491) y8))))) 
(and (or (<= (+ x9 0.874328398) x10) (or (<= (+ x10 0.5558706508) x9) (or (>= (- y9 0.3292844595) y10) (or (>= (- y10 0.286438507) y9))))) 
(and (or (<= (+ x9 0.874328398) x11) (or (<= (+ x11 0.7927831782) x9) (or (>= (- y9 0.3292844595) y11) (or (>= (- y11 0.2409534635) y9))))) 
(and (or (<= (+ x9 0.874328398) x12) (or (<= (+ x12 0.7890897911) x9) (or (>= (- y9 0.3292844595) y12) (or (>= (- y12 0.0703414039) y9))))) 
(and (or (<= (+ x9 0.874328398) x13) (or (<= (+ x13 0.2323399369) x9) (or (>= (- y9 0.3292844595) y13) (or (>= (- y13 0.0113939723) y9))))) 
(and (or (<= (+ x9 0.874328398) x14) (or (<= (+ x14 0.3567800875) x9) (or (>= (- y9 0.3292844595) y14) (or (>= (- y14 0.0074030491) y9))))) 
(and (or (<= (+ x10 0.5558706508) x11) (or (<= (+ x11 0.7927831782) x10) (or (>= (- y10 0.286438507) y11) (or (>= (- y11 0.2409534635) y10))))) 
(and (or (<= (+ x10 0.5558706508) x12) (or (<= (+ x12 0.7890897911) x10) (or (>= (- y10 0.286438507) y12) (or (>= (- y12 0.0703414039) y10))))) 
(and (or (<= (+ x10 0.5558706508) x13) (or (<= (+ x13 0.2323399369) x10) (or (>= (- y10 0.286438507) y13) (or (>= (- y13 0.0113939723) y10))))) 
(and (or (<= (+ x10 0.5558706508) x14) (or (<= (+ x14 0.3567800875) x10) (or (>= (- y10 0.286438507) y14) (or (>= (- y14 0.0074030491) y10))))) 
(and (or (<= (+ x11 0.7927831782) x12) (or (<= (+ x12 0.7890897911) x11) (or (>= (- y11 0.2409534635) y12) (or (>= (- y12 0.0703414039) y11))))) 
(and (or (<= (+ x11 0.7927831782) x13) (or (<= (+ x13 0.2323399369) x11) (or (>= (- y11 0.2409534635) y13) (or (>= (- y13 0.0113939723) y11))))) 
(and (or (<= (+ x11 0.7927831782) x14) (or (<= (+ x14 0.3567800875) x11) (or (>= (- y11 0.2409534635) y14) (or (>= (- y14 0.0074030491) y11))))) 
(and (or (<= (+ x12 0.7890897911) x13) (or (<= (+ x13 0.2323399369) x12) (or (>= (- y12 0.0703414039) y13) (or (>= (- y13 0.0113939723) y12))))) 
(and (or (<= (+ x12 0.7890897911) x14) (or (<= (+ x14 0.3567800875) x12) (or (>= (- y12 0.0703414039) y14) (or (>= (- y14 0.0074030491) y12))))) 
(and (or (<= (+ x13 0.2323399369) x14) (or (<= (+ x14 0.3567800875) x13) (or (>= (- y13 0.0113939723) y14) (or (>= (- y14 0.0074030491) y13))))) )))))))))))))))))))))))))))))))))))))))))))))))))))))))))))))))))))))))))))))))))))))))))))))))))))))))))))))))))))))))))))))))))))))))))))))))))))))))))))))))))))))))))))))))))))))))))))))))))))))))))))))))))))))))
(minimize c)
(check-sat)
(get-objectives)
(exit)
